Cu Ga O 
   1.0
     5.3690861396376572    0.0000000000000000    0.0000000000000000
     0.0000000000000000    6.5952493133466801    0.0000000000000000
     0.0000000000000000    0.0000000000000000    5.2177614648683139
   4   4   8
Direct
  0.4511945133534528  0.1309919950000000  0.5100259780000000
  0.5506680010000000  0.8690080050000000  0.0100259780000000
  0.9493319990000001  0.3690080050000000  0.5100259780000000
  0.0506680010000000  0.6309919950000000  0.0100259780000000
  0.0798299980000000  0.1235470030000000  0.0101650000000000
  0.9201700090000001  0.8764529820000000  0.5101649760000000
  0.5798299910000000  0.3764529820000000  0.0101650000000000
  0.4201700090000000  0.6235470180000000  0.5101649760000000
  0.4059349890000001  0.1489759980000000  0.9127209780000000
  0.5940650110000000  0.8510240320000000  0.4127209780000000
  0.9059349890000001  0.3510240020000000  0.9127209780000000
  0.0940650110000000  0.6489759680000000  0.4127209780000000
  0.0582240000000000  0.0993750020000000  0.3590880040000000
  0.9417759780000000  0.9006249899999998  0.8590880040000000
  0.5582240220000000  0.4006249900000000  0.3590880040000000
  0.4417760070000001  0.5993750100000000  0.8590880040000000